; benchmark generated from python API
(set-info :status unknown)
(declare-fun S_3 () Real)
(declare-fun L_2 () Real)
(declare-fun A_2 () Real)
(declare-fun A_3 () Real)
(declare-fun A_4 () Real)
(declare-fun A_1 () Real)
(declare-fun A_0 () Real)
(declare-fun S_4 () Real)
(declare-fun S_2 () Real)
(declare-fun S_1 () Real)
(declare-fun S_0 () Real)
(declare-fun C () Real)
(declare-fun L_1 () Real)
(declare-fun B () Real)
(declare-fun L_0 () Real)
(declare-fun a () Real)
(assert
 (exists ((I_0 Real) (I_1 Real) (I_2 Real) (I_3 Real) (I_4 Real) (L_3 Real) (L_4 Real) )(let ((?x90 (- A_2 L_2)))
 (let (($x124 (<= ?x90 S_3)))
 (let (($x122 (>= A_4 A_3)))
 (let (($x121 (>= A_3 A_2)))
 (let (($x120 (>= A_2 A_1)))
 (let (($x119 (>= A_1 A_0)))
 (let (($x117 (>= S_4 S_3)))
 (let (($x114 (>= S_3 S_2)))
 (let (($x111 (>= S_2 S_1)))
 (let (($x108 (>= S_1 S_0)))
 (let ((?x146 (- A_4 L_4)))
 (let ((?x83 (* C 1.0)))
 (let ((?x147 (+ I_3 ?x83)))
 (let (($x154 (= I_3 (ite (< (+ I_2 ?x83) (- A_3 L_3)) (+ I_2 ?x83) (- A_3 L_3)))))
 (let ((?x85 (- A_1 L_1)))
 (let ((?x159 (+ I_0 ?x83)))
 (let (($x163 (= L_4 L_3)))
 (let (($x168 (=> (not (> (- (- A_4 L_3) I_4) B)) $x163)))
 (let (($x166 (> (- (- A_4 L_3) I_4) B)))
 (let (($x172 (=> $x166 (= L_4 (- (- A_4 I_4) B)))))
 (let (($x173 (= L_3 L_2)))
 (let (($x177 (=> (not (> (- (- A_3 L_2) I_3) B)) $x173)))
 (let (($x175 (> (- (- A_3 L_2) I_3) B)))
 (let (($x181 (=> $x175 (= L_3 (- (- A_3 I_3) B)))))
 (let (($x61 (= L_2 L_1)))
 (let (($x185 (=> (not (> (- (- A_2 L_1) I_2) B)) $x61)))
 (let (($x183 (> (- (- A_2 L_1) I_2) B)))
 (let (($x189 (=> $x183 (= L_2 (- (- A_2 I_2) B)))))
 (let (($x51 (= L_1 L_0)))
 (let (($x193 (=> (not (> (- (- A_1 L_0) I_1) B)) $x51)))
 (let (($x191 (> (- (- A_1 L_0) I_1) B)))
 (let (($x197 (=> $x191 (= L_1 (- (- A_1 I_1) B)))))
 (let (($x42 (= a 1.0)))
 (let ((?x38 (* 5.0 a)))
 (let (($x40 (>= B ?x38)))
 (let (($x39 (>= C ?x38)))
 (let (($x34 (>= L_0 0.0)))
 (and $x34 (<= I_0 (- A_0 L_0)) $x39 $x40 $x42 $x197 $x193 $x189 $x185 $x181 $x177 $x172 $x168 $x197 $x193 $x189 $x185 $x181 $x177 $x172 $x168 (= I_1 (ite (< ?x159 ?x85) ?x159 ?x85)) (= I_2 (ite (< (+ I_1 ?x83) ?x90) (+ I_1 ?x83) ?x90)) $x154 (= I_4 (ite (< ?x147 ?x146) ?x147 ?x146)) (>= S_0 (- I_0 ?x83)) (<= S_0 I_0) (>= S_1 I_0) $x108 (<= S_1 I_1) (>= S_2 I_1) $x111 (<= S_2 I_2) (>= S_3 I_2) $x114 (<= S_3 I_3) (>= S_4 I_3) $x117 (<= S_4 I_4) $x119 $x120 $x121 $x122 (> (- A_3 L_3) S_3) $x124)))))))))))))))))))))))))))))))))))))))
 )
(check-sat)
